NAME : sim81.92888.tour
COMMENT : Length = 92888
COMMENT : Found by LKH [Keld Helsgaun] Sun Sep 16 22:37:52 2018
TYPE : TOUR
DIMENSION : 81
TOUR_SECTION
1
33
24
40
39
9
79
63
72
80
50
76
55
29
6
35
4
34
8
32
59
31
51
12
70
45
37
26
17
47
54
7
58
53
2
25
27
49
21
28
36
16
41
74
30
64
52
56
81
61
75
15
19
22
38
78
23
60
42
46
11
73
69
5
10
14
65
77
62
48
44
20
71
18
13
66
3
43
68
57
67
-1
EOF
